15
45
789
890
709
776
834
723
871
774
998
1038
766
989
732
909
1267
545	471
843	934
444	437
938	983
976	923
583	607
299	383
983	953
920	901
569	653
396	455
572	601
894	968
623	523
648	583
431	447
581	538
600	560
605	551
590	655
132	40
335	299
882	815
246	329
14	33
701	792
823	811
521	498
723	681
611	513
657	621
659	689
867	836
587	635
589	591
299	224
35	109
981	959
522	578
562	568
556	537
504	554
963	1049
230	324
92	111
